
******************************************************************************
This program contains Ipopt, a library for large-scale nonlinear optimization.
 Ipopt is released as open source code under the Eclipse Public License (EPL).
         For more information visit http://projects.coin-or.org/Ipopt
******************************************************************************

This is Ipopt version 3.12.6, running with linear solver ma57.

Number of nonzeros in equality constraint Jacobian...:    46768
Number of nonzeros in inequality constraint Jacobian.:        0
Number of nonzeros in Lagrangian Hessian.............:     9423

Total number of variables............................:    11215
                     variables with only lower bounds:       15
                variables with lower and upper bounds:        0
                     variables with only upper bounds:        0
Total number of equality constraints.................:    11192
Total number of inequality constraints...............:        0
        inequality constraints with only lower bounds:        0
   inequality constraints with lower and upper bounds:        0
        inequality constraints with only upper bounds:        0

iter    objective    inf_pr   inf_du lg(mu)  ||d||  lg(rg) alpha_du alpha_pr  ls
   0  5.5663472e+09 1.50e+04 3.06e+00  -1.0 0.00e+00    -  0.00e+00 0.00e+00   0
Reallocating memory for MA57: lfact (1577254)
Reallocating memory for MA57: lfact (1667597)
   1  5.5663413e+09 1.50e+04 8.55e+02  -1.0 1.45e+04   2.0 6.97e-05 6.97e-05f  1
Reallocating memory for MA57: lfact (2096321)
   2  5.5662681e+09 1.50e+04 3.58e+05  -1.0 1.45e+04   2.4 1.07e-05 8.72e-04f  1
Reallocating memory for MA57: lfact (2634319)
Reallocating memory for MA57: lfact (3559760)
   3  5.5662681e+09 1.50e+04 3.58e+05  -1.0 1.45e+04   3.8 3.31e-05 5.02e-07f  2
   4  5.5662656e+09 1.50e+04 3.62e+05  -1.0 1.45e+04   3.3 1.15e-02 3.37e-05f  1
   5r 5.5662656e+09 1.50e+04 1.00e+03   4.2 0.00e+00   2.8 0.00e+00 1.23e-07R  2
   6r 5.5662656e+09 1.50e+04 1.07e+03   4.2 5.37e+04    -  8.35e-06 1.48e-05f  1
   7r 5.5662850e+09 1.49e+04 1.66e+03   2.1 5.38e+04    -  1.92e-02 1.25e-03f  1
   8r 5.5896452e+09 1.25e+04 1.70e+03   2.1 5.16e+05    -  4.29e-03 5.40e-03f  1
   9  5.5826056e+09 1.25e+04 9.99e+01  -1.0 7.44e+04    -  8.10e-04 6.80e-04f  1
iter    objective    inf_pr   inf_du lg(mu)  ||d||  lg(rg) alpha_du alpha_pr  ls
  10  5.5597738e+09 1.25e+04 9.97e+01  -1.0 1.32e+05    -  2.48e-04 2.20e-03f  1
  11  5.5598796e+09 1.25e+04 2.78e+05  -1.0 1.21e+04   2.3 2.90e-04 8.93e-04h  1
  12r 5.5598796e+09 1.25e+04 9.99e+02   4.1 0.00e+00   1.8 0.00e+00 4.34e-07R  5
  13r 5.5598813e+09 1.25e+04 1.11e+04   4.1 1.32e+05    -  3.26e-04 2.11e-06f  1
  14r 5.5958255e+09 1.12e+04 1.14e+04   2.0 4.97e+04    -  1.04e-01 3.37e-02f  1
  15  5.5848652e+09 1.12e+04 9.97e+01  -1.0 8.00e+04    -  1.28e-04 1.03e-03f  1
  16  5.5848809e+09 1.12e+04 2.44e+02  -1.0 1.09e+04   1.4 2.31e-03 8.05e-05h  1
  17  5.5848837e+09 1.12e+04 8.40e+03  -1.0 1.09e+04   0.9 4.22e-03 1.48e-05h  1
  18  5.5849336e+09 1.12e+04 1.95e+04  -1.0 1.09e+04   0.4 1.52e-02 2.57e-04h  1
  19  5.5862655e+09 1.11e+04 6.42e+04  -1.0 1.08e+04  -0.1 5.75e-03 6.78e-03h  1
iter    objective    inf_pr   inf_du lg(mu)  ||d||  lg(rg) alpha_du alpha_pr  ls
  20  5.5863112e+09 1.11e+04 6.43e+04  -1.0 1.08e+04  -0.5 6.18e-02 2.39e-04h  1
  21  5.5873741e+09 1.11e+04 6.99e+04  -1.0 1.07e+04  -1.0 3.88e-02 6.13e-03h  1
  22  5.5873831e+09 1.11e+04 1.12e+06  -1.0 1.06e+04  -1.5 2.08e-01 8.26e-05h  1
  23  5.5897110e+09 1.09e+04 1.83e+06  -1.0 1.07e+04  -1.1 2.36e-02 1.40e-02h  1
  24  5.6986129e+09 6.45e+03 5.19e+06  -1.0 1.04e+04  -1.5 1.12e-01 4.09e-01h  1
  25  5.7005335e+09 6.40e+03 5.15e+06  -1.0 6.19e+03  -1.1 1.09e-01 7.22e-03h  1
  26  5.7005560e+09 6.40e+03 5.15e+06  -1.0 6.19e+03  -0.7 4.48e-04 7.67e-05h  1
  27  5.7005635e+09 6.40e+03 5.15e+06  -1.0 6.43e+03  -1.2 2.40e-05 2.72e-05h  1
  28  5.7258924e+09 5.90e+03 1.02e+08  -1.0 6.45e+03  -0.7 5.34e-01 7.91e-02h  1
  29  5.7265252e+09 5.88e+03 1.02e+08  -1.0 5.83e+03  -1.2 1.06e-02 2.48e-03h  1
iter    objective    inf_pr   inf_du lg(mu)  ||d||  lg(rg) alpha_du alpha_pr  ls
  30  5.7266161e+09 5.88e+03 1.01e+08  -1.0 5.88e+03  -0.8 3.60e-05 3.09e-04h  1
  31  5.7671595e+09 5.14e+03 9.65e+07  -1.0 5.90e+03  -0.4 1.49e-01 1.26e-01h  1
  32  5.7883647e+09 4.78e+03 9.23e+07  -1.0 5.12e+03   0.1 7.44e-02 7.07e-02h  1
  33  5.7890661e+09 4.77e+03 9.10e+07  -1.0 4.67e+03  -0.4 2.69e-02 2.71e-03h  1
  34  5.7891111e+09 4.76e+03 1.66e+08  -1.0 4.71e+03   0.0 2.36e-01 1.60e-04h  1
  35  5.8349247e+09 3.99e+03 1.58e+08  -1.0 4.64e+03  -0.5 3.39e-02 1.63e-01h  1
  36  5.8598405e+09 3.60e+03 1.38e+08  -1.0 3.87e+03  -0.0 1.39e-01 9.69e-02h  1
  37  5.8600621e+09 3.60e+03 9.96e+07  -1.0 3.36e+03  -0.5 1.24e-01 1.01e-03h  1
  38  5.8600671e+09 3.60e+03 9.19e+07  -1.0 3.46e+03  -0.1 4.19e-02 2.14e-05h  1
  39  5.8604627e+09 3.59e+03 1.21e+08  -1.0 3.34e+03  -0.6 7.77e-01 1.87e-03h  1
iter    objective    inf_pr   inf_du lg(mu)  ||d||  lg(rg) alpha_du alpha_pr  ls
  40  5.8881741e+09 3.17e+03 1.01e+08  -1.0 3.44e+03  -0.1 3.88e-01 1.18e-01h  1
  41  5.9385902e+09 2.45e+03 7.73e+07  -1.0 3.04e+03   0.3 2.63e-03 2.26e-01h  1
  42  5.9394050e+09 2.44e+03 7.53e+07  -1.0 2.33e+03   0.7 6.76e-06 4.57e-03h  1
  43  5.9394560e+09 2.44e+03 8.63e+07  -1.0 2.33e+03   1.1 1.39e-02 2.84e-04h  1
  44  5.9394750e+09 2.44e+03 8.64e+07  -1.0 2.32e+03   0.7 3.66e-04 1.06e-04h  1
  45  6.1361091e+09 5.84e+02 1.08e+08  -1.0 2.31e+03   0.2 1.07e-05 1.00e+00h  1
  46  6.1361037e+09 5.79e+02 1.87e+08  -1.0 5.71e+02   1.5 2.63e-01 7.76e-03f  1
  47  6.1353054e+09 1.75e+00 1.18e+08  -1.0 5.67e+02   1.0 1.10e-02 1.00e+00f  1
  48  6.1351976e+09 5.32e-03 5.19e+07  -1.0 1.97e+00   1.5 2.52e-01 1.00e+00f  1
  49  6.1348800e+09 2.35e-04 7.10e+06  -1.0 4.17e-01   1.0 8.62e-01 1.00e+00f  1
iter    objective    inf_pr   inf_du lg(mu)  ||d||  lg(rg) alpha_du alpha_pr  ls
  50  6.1339267e+09 2.09e-03 6.64e+06  -1.0 1.25e+00   0.5 6.84e-02 1.00e+00f  1
  51  6.1310507e+09 5.75e-02 3.82e+06  -1.0 3.76e+00   0.0 4.25e-01 1.00e+00f  1
  52  6.1300729e+09 5.63e-02 2.78e+06  -1.0 1.13e+01  -0.5 2.71e-01 1.13e-01f  1
  53  6.1263244e+09 5.41e-02 2.03e+06  -1.0 3.38e+01  -0.9 2.70e-01 1.45e-01f  1
  54  6.0763569e+09 8.87e+00 2.76e+05  -1.0 1.01e+02  -1.4 8.65e-01 6.40e-01f  1
  55  6.0756916e+09 8.85e+00 2.17e+05  -1.0 2.99e+02  -1.9 2.13e-01 2.84e-03f  1
  56  6.0739268e+09 8.83e+00 2.17e+05  -1.0 8.94e+02  -2.4 5.42e-04 2.43e-03f  1
  57  6.0732962e+09 8.66e+00 2.16e+05  -1.0 4.26e+01  -1.0 3.28e-03 1.93e-02f  1
  58  6.0218542e+09 3.96e+00 2.15e+05  -1.0 1.27e+02  -1.5 1.62e-03 5.27e-01f  1
  59  6.0217557e+09 3.87e+00 1.49e+05  -1.0 6.94e+00  -0.2 3.07e-01 2.14e-02f  1
iter    objective    inf_pr   inf_du lg(mu)  ||d||  lg(rg) alpha_du alpha_pr  ls
  60  6.0080324e+09 2.10e-01 1.44e+05  -1.0 1.79e+01  -0.7 2.54e-02 1.00e+00f  1
  61  5.9899294e+09 2.91e-01 1.28e+05  -1.0 5.35e+01  -1.1 1.13e-01 4.43e-01f  1
  62  5.9846593e+09 2.97e-01 1.27e+05  -1.0 1.59e+02  -1.6 6.43e-03 4.34e-02f  1
  63  5.6964275e+09 5.20e+01 1.24e+05  -1.0 4.66e+02  -2.1 2.44e-02 8.18e-01f  1
  64  5.6954485e+09 4.89e+01 1.21e+05  -1.0 2.87e+01  -0.8 2.66e-02 6.03e-02f  1
  65  5.6947908e+09 4.82e+01 1.19e+05  -1.0 6.44e+01  -1.2 1.59e-02 1.34e-02f  1
  66  5.5499245e+09 7.68e+00 1.13e+05  -1.0 1.94e+02  -1.7 5.89e-02 1.00e+00f  1
  67  5.5174308e+09 6.98e+00 3.26e+04  -1.0 5.53e+02  -2.2 7.11e-01 7.84e-02f  1
  68  5.3987569e+09 3.88e+01 3.16e+04  -1.0 1.44e+03  -2.7 2.62e-02 1.03e-01f  1
  69  4.9560998e+09 5.99e+01 5.69e+03  -1.0 6.21e+02  -2.2 5.00e-03 1.00e+00f  1
iter    objective    inf_pr   inf_du lg(mu)  ||d||  lg(rg) alpha_du alpha_pr  ls
  70  3.8765129e+09 3.70e+02 1.24e+04  -1.0 1.59e+03  -2.7 8.29e-02 1.00e+00f  1
  71  3.6661637e+09 2.06e+02 7.63e+03  -1.0 3.03e+03  -3.2 3.61e-01 9.75e-02f  1
  72  3.6631900e+09 2.06e+02 7.62e+03  -1.0 6.47e+03  -3.7 8.44e-03 7.58e-04f  1
  73  3.6576262e+09 2.06e+02 7.62e+03  -1.0 1.20e+04    -  1.18e-02 7.59e-04f  1
  74  3.3547488e+09 2.52e+02 6.84e+03  -1.0 1.20e+04    -  2.27e-02 4.23e-02f  1
  75  2.2994899e+09 7.29e+02 1.28e+04  -1.0 1.11e+04    -  2.92e-03 1.74e-01f  1
  76  1.3782962e+09 5.70e+02 1.74e+04  -1.0 8.07e+03    -  7.45e-01 2.28e-01f  1
  77  2.2053111e+08 5.06e+02 1.41e+04  -1.0 7.30e+03    -  7.88e-01 6.17e-01f  1
  78  1.9801745e+07 2.15e+02 2.44e+03  -1.0 4.22e+03    -  1.00e+00 1.00e+00f  1
  79  1.9746806e+07 2.49e-01 1.07e+01  -1.0 2.62e+02    -  1.00e+00 1.00e+00f  1
iter    objective    inf_pr   inf_du lg(mu)  ||d||  lg(rg) alpha_du alpha_pr  ls
  80  1.9746559e+07 3.21e-05 5.78e-03  -1.0 3.94e-01    -  1.00e+00 1.00e+00h  1
  81  1.9746531e+07 7.02e-05 1.01e-02  -2.5 5.54e-01    -  1.00e+00 1.00e+00h  1
  82  1.9746530e+07 2.28e-06 3.77e-04  -3.8 1.06e-01    -  1.00e+00 1.00e+00h  1
  83  1.9746530e+07 4.28e-09 7.08e-07  -5.7 4.59e-03    -  1.00e+00 1.00e+00h  1
  84  1.9746530e+07 3.64e-12 1.12e-10  -8.6 2.04e-05    -  1.00e+00 1.00e+00h  1

Number of Iterations....: 84

                                   (scaled)                 (unscaled)
Objective...............:   7.2252212380775134e+04    1.9746529643665843e+07
Dual infeasibility......:   1.1238010695677921e-10    3.0713483231287763e-08
Constraint violation....:   3.6379788070917130e-12    3.6379788070917130e-12
Complementarity.........:   2.5224367324928890e-09    6.8938195899030656e-07
Overall NLP error.......:   2.5224367324928890e-09    6.8938195899030656e-07


Number of objective function evaluations             = 93
Number of objective gradient evaluations             = 82
Number of equality constraint evaluations            = 93
Number of inequality constraint evaluations          = 0
Number of equality constraint Jacobian evaluations   = 87
Number of inequality constraint Jacobian evaluations = 0
Number of Lagrangian Hessian evaluations             = 84
Total CPU secs in IPOPT (w/o function evaluations)   =      9.527
Total CPU secs in NLP function evaluations           =      0.377

EXIT: Optimal Solution Found.

************************ CUTEst statistics ************************


 Package used            :  IPOPT
 Problem                 :  MARINE    
 # variables             =           11215
 # constraints           =           11192
 # objective functions   =        0.1760000E+03
 # objective gradients   =        0.8300000E+02
 # objective Hessians    =        0.8300000E+02
 # Hessian-vector prdct  =        0.0000000E+00
 # constraints functions =        0.1820000E+03
 # constraints gradients =        0.8900000E+02
 # constraints Hessians  =        0.8300000E+02
 Exit code               =               0
 Final f                 =   0.1974653E+08
 Set up time             =            0.26 seconds
 Solve time              =           17.28 seconds


******************************************************************

System Time =       8.5319995880 s.
